
include ${pot}.lmp
include kalj.lmp
units lj
atom_style atomic

variable dimensions equal 3
variable density equal 1.2
variable fraca equal 0.8

dimension ${dimensions}
dimension 3
read_restart ${prevbasename}.final.lmprestart.${steps}
read_restart equil/kalj_T0.9_n480_v400_150000_1.final.lmprestart.${steps}
read_restart equil/kalj_T0.9_n480_v400_150000_1.final.lmprestart.150000
Reading restart file ...
  restart file = 15 Sep 2022, LAMMPS = 15 Sep 2022
  restoring atom style atomic from restart
  orthogonal box = (0 0 0) to (7.368063 7.368063 7.368063)
  1 by 2 by 2 MPI processor grid
  restoring pair style lj/cut from restart
  480 atoms
  read_restart CPU = 0.029 seconds
include ${pot}_particles.lmp
include kalj_particles.lmp
mass * 1.0 #  set mass 1.0 for all types

pair_style lj/cut 2.5
#pair coeffs type1 type2 eps sigma
pair_coeff 1 1 1.0 1.00 2.5
pair_coeff 1 2 1.5 0.80 2.0
pair_coeff 2 2 0.5 0.88 2.2
pair_modify shift yes
reset_timestep 0

print "Setting up equilibration run"
Setting up equilibration run
variable dumptime2 equal ${steps}/2000
variable dumptime2 equal 150000/2000
dump 1 all dcd ${dumptime2} ${basename}.unwrap.dcd
dump 1 all dcd 75 ${basename}.unwrap.dcd
dump 1 all dcd 75 prod/kalj_T0.9_n480_v400_prod_150000_1.unwrap.dcd
#dump 2 all dcd ${dumptime2} ${basename}.dcd
dump_modify 1 unwrap yes
#dump_modify 2 unwrap no

restart ${restarttime} ${basename}.restart
restart 150000 ${basename}.restart
restart 150000 prod/kalj_T0.9_n480_v400_prod_150000_1.restart
restart ${steps} ${basename}.final.lmprestart
restart 150000 ${basename}.final.lmprestart
restart 150000 prod/kalj_T0.9_n480_v400_prod_150000_1.final.lmprestart

thermo ${thermotime}
thermo 5000
timestep ${timestep}
timestep 0.002

neighbor 0.5 bin
neigh_modify every 1 delay ${neighborstep} check yes
neigh_modify every 1 delay 25 check yes

#velocity all create ${temp} ${id} dist gaussian
fix 1 all nvt temp ${temp} ${temp} ${taut}
fix 1 all nvt temp 0.9 ${temp} ${taut}
fix 1 all nvt temp 0.9 0.9 ${taut}
fix 1 all nvt temp 0.9 0.9 0.2
Resetting global fix info from restart file:
  fix style: nvt, fix ID: 1

variable steps4 equal ${steps}/4
variable steps4 equal 150000/4
run ${steps4}
run 37500
Generated 0 of 1 mixed pair_coeff terms from geometric mixing rule
All restart file global fix info was re-assigned
Neighbor list info ...
  update: every = 1 steps, delay = 25 steps, check = yes
  max neighbors/atom: 2000, page size: 100000
  master list distance cutoff = 3
  ghost atom cutoff = 3
  binsize = 1.5, bins = 5 5 5
  1 neighbor lists, perpetual/occasional/extra = 1 0 0
  (1) pair lj/cut, perpetual
      attributes: half, newton on
      pair build: half/bin/atomonly/newton
      stencil: half/bin/3d
      bin: standard
Per MPI rank memory allocation (min/avg/max) = 3.146 | 3.147 | 3.147 Mbytes
   Step          Temp          E_pair         E_mol          TotEng         Press     
         0   0.89745427    -6.2434841      0             -4.9001073      8.3090823    
      5000   0.95383815    -6.1878653      0             -4.7600889      8.7599373    
     10000   0.89758887    -6.2621552      0             -4.9185768      8.2456499    
     15000   0.90630984    -6.1481265      0             -4.7914939      8.9869587    
     20000   0.894579      -6.1859706      0             -4.8468976      8.7211365    
     25000   0.92550055    -6.1488967      0             -4.763538       9.0300371    
     30000   0.87096174    -6.1876853      0             -4.8839645      8.7455918    
     35000   0.92608707    -6.1341765      0             -4.74794        9.0744562    
     37500   0.9154793     -6.2632287      0             -4.8928706      8.2603157    
Loop time of 4.1096 on 4 procs for 37500 steps with 480 atoms

Performance: 1576796.339 tau/day, 9124.979 timesteps/s, 4.380 Matom-step/s
99.5% CPU use with 4 MPI tasks x 1 OpenMP threads

MPI task timing breakdown:
Section |  min time  |  avg time  |  max time  |%varavg| %total
---------------------------------------------------------------
Pair    | 2.6756     | 2.7275     | 2.8307     |   3.7 | 66.37
Neigh   | 0.23435    | 0.23778    | 0.24382    |   0.8 |  5.79
Comm    | 0.86118    | 0.96981    | 1.0208     |   6.5 | 23.60
Output  | 0.022694   | 0.026417   | 0.034137   |   2.8 |  0.64
Modify  | 0.10154    | 0.10621    | 0.11112    |   1.1 |  2.58
Other   |            | 0.04186    |            |       |  1.02

Nlocal:            120 ave         126 max         115 min
Histogram: 1 1 0 0 0 0 1 0 0 1
Nghost:        1358.25 ave        1375 max        1347 min
Histogram: 1 0 1 1 0 0 0 0 0 1
Neighs:         6923.5 ave        7261 max        6672 min
Histogram: 1 0 1 0 1 0 0 0 0 1

Total # of neighbors = 27694
Ave neighs/atom = 57.695833
Neighbor list builds = 985
Dangerous builds = 0
Total wall time: 0:00:04
