
include ${pot}.lmp
include kalj.lmp
units lj
atom_style atomic

variable dimensions equal 3
variable density equal 1.2
variable fraca equal 0.8

dimension ${dimensions}
dimension 3
read_restart ${prevbasename}.final.lmprestart.${steps}
read_restart equil/kalj_T0.8_n480_v400_150000_1.final.lmprestart.${steps}
read_restart equil/kalj_T0.8_n480_v400_150000_1.final.lmprestart.150000
Reading restart file ...
  restart file = 15 Sep 2022, LAMMPS = 15 Sep 2022
  restoring atom style atomic from restart
  orthogonal box = (0 0 0) to (7.368063 7.368063 7.368063)
  1 by 2 by 2 MPI processor grid
  restoring pair style lj/cut from restart
  480 atoms
  read_restart CPU = 0.026 seconds
include ${pot}_particles.lmp
include kalj_particles.lmp
mass * 1.0 #  set mass 1.0 for all types

pair_style lj/cut 2.5
#pair coeffs type1 type2 eps sigma
pair_coeff 1 1 1.0 1.00 2.5
pair_coeff 1 2 1.5 0.80 2.0
pair_coeff 2 2 0.5 0.88 2.2
pair_modify shift yes
reset_timestep 0

print "Setting up equilibration run"
Setting up equilibration run
variable dumptime2 equal ${steps}/2000
variable dumptime2 equal 150000/2000
dump 1 all dcd ${dumptime2} ${basename}.unwrap.dcd
dump 1 all dcd 75 ${basename}.unwrap.dcd
dump 1 all dcd 75 prod/kalj_T0.8_n480_v400_prod_150000_1.unwrap.dcd
#dump 2 all dcd ${dumptime2} ${basename}.dcd
dump_modify 1 unwrap yes
#dump_modify 2 unwrap no

restart ${restarttime} ${basename}.restart
restart 150000 ${basename}.restart
restart 150000 prod/kalj_T0.8_n480_v400_prod_150000_1.restart
restart ${steps} ${basename}.final.lmprestart
restart 150000 ${basename}.final.lmprestart
restart 150000 prod/kalj_T0.8_n480_v400_prod_150000_1.final.lmprestart

thermo ${thermotime}
thermo 5000
timestep ${timestep}
timestep 0.002

neighbor 0.5 bin
neigh_modify every 1 delay ${neighborstep} check yes
neigh_modify every 1 delay 25 check yes

#velocity all create ${temp} ${id} dist gaussian
fix 1 all nvt temp ${temp} ${temp} ${taut}
fix 1 all nvt temp 0.8 ${temp} ${taut}
fix 1 all nvt temp 0.8 0.8 ${taut}
fix 1 all nvt temp 0.8 0.8 0.2
Resetting global fix info from restart file:
  fix style: nvt, fix ID: 1

variable steps4 equal ${steps}/4
variable steps4 equal 150000/4
run ${steps4}
run 37500
Generated 0 of 1 mixed pair_coeff terms from geometric mixing rule
All restart file global fix info was re-assigned
Neighbor list info ...
  update: every = 1 steps, delay = 25 steps, check = yes
  max neighbors/atom: 2000, page size: 100000
  master list distance cutoff = 3
  ghost atom cutoff = 3
  binsize = 1.5, bins = 5 5 5
  1 neighbor lists, perpetual/occasional/extra = 1 0 0
  (1) pair lj/cut, perpetual
      attributes: half, newton on
      pair build: half/bin/atomonly/newton
      stencil: half/bin/3d
      bin: standard
Per MPI rank memory allocation (min/avg/max) = 3.148 | 3.148 | 3.148 Mbytes
   Step          Temp          E_pair         E_mol          TotEng         Press     
         0   0.78442075    -6.3747841      0             -5.2006042      7.5266008    
      5000   0.79424999    -6.4005385      0             -5.2116456      7.252618     
     10000   0.77827985    -6.390359       0             -5.2253713      7.3730493    
     15000   0.82131299    -6.3502696      0             -5.1208667      7.5666707    
     20000   0.81956558    -6.3746269      0             -5.1478397      7.5035162    
     25000   0.79733897    -6.3821966      0             -5.1886799      7.2728896    
     30000   0.7702247     -6.2602429      0             -5.1073128      8.1826066    
     35000   0.78870334    -6.353301       0             -5.1727107      7.6938163    
     37500   0.80596517    -6.3125552      0             -5.1061261      7.7760025    
Loop time of 4.10984 on 4 procs for 37500 steps with 480 atoms

Performance: 1576702.953 tau/day, 9124.438 timesteps/s, 4.380 Matom-step/s
99.5% CPU use with 4 MPI tasks x 1 OpenMP threads

MPI task timing breakdown:
Section |  min time  |  avg time  |  max time  |%varavg| %total
---------------------------------------------------------------
Pair    | 2.7259     | 2.7665     | 2.7982     |   1.7 | 67.31
Neigh   | 0.21897    | 0.22283    | 0.2255     |   0.5 |  5.42
Comm    | 0.91392    | 0.94448    | 0.98751    |   3.1 | 22.98
Output  | 0.023284   | 0.027011   | 0.034811   |   2.8 |  0.66
Modify  | 0.1048     | 0.10605    | 0.10768    |   0.4 |  2.58
Other   |            | 0.04297    |            |       |  1.05

Nlocal:            120 ave         123 max         117 min
Histogram: 1 1 0 0 0 0 0 0 1 1
Nghost:         1388.5 ave        1394 max        1385 min
Histogram: 1 0 1 1 0 0 0 0 0 1
Neighs:        6932.25 ave        7110 max        6765 min
Histogram: 1 0 1 0 0 0 1 0 0 1

Total # of neighbors = 27729
Ave neighs/atom = 57.76875
Neighbor list builds = 923
Dangerous builds = 0
Total wall time: 0:00:04
