
include ${pot}.lmp
include kalj.lmp
units lj
atom_style atomic

variable dimensions equal 3
variable density equal 1.2
variable fraca equal 0.8

dimension ${dimensions}
dimension 3
read_restart ${prevbasename}.final.lmprestart.${steps}
read_restart equil/kalj_T1_n480_v400_50000_1.final.lmprestart.${steps}
read_restart equil/kalj_T1_n480_v400_50000_1.final.lmprestart.50000
Reading restart file ...
  restart file = 15 Sep 2022, LAMMPS = 15 Sep 2022
  restoring atom style atomic from restart
  orthogonal box = (0 0 0) to (7.368063 7.368063 7.368063)
  1 by 2 by 2 MPI processor grid
  restoring pair style lj/cut from restart
  480 atoms
  read_restart CPU = 0.014 seconds
include ${pot}_particles.lmp
include kalj_particles.lmp
mass * 1.0 #  set mass 1.0 for all types

pair_style lj/cut 2.5
#pair coeffs type1 type2 eps sigma
pair_coeff 1 1 1.0 1.00 2.5
pair_coeff 1 2 1.5 0.80 2.0
pair_coeff 2 2 0.5 0.88 2.2
pair_modify shift yes
reset_timestep 0

print "Setting up equilibration run"
Setting up equilibration run
variable dumptime2 equal ${steps}/2000
variable dumptime2 equal 50000/2000
dump 1 all dcd ${dumptime2} ${basename}.unwrap.dcd
dump 1 all dcd 25 ${basename}.unwrap.dcd
dump 1 all dcd 25 prod/kalj_T1_n480_v400_prod_50000_1.unwrap.dcd
#dump 2 all dcd ${dumptime2} ${basename}.dcd
dump_modify 1 unwrap yes
#dump_modify 2 unwrap no

restart ${restarttime} ${basename}.restart
restart 30000 ${basename}.restart
restart 30000 prod/kalj_T1_n480_v400_prod_50000_1.restart
restart ${steps} ${basename}.final.lmprestart
restart 50000 ${basename}.final.lmprestart
restart 50000 prod/kalj_T1_n480_v400_prod_50000_1.final.lmprestart

thermo ${thermotime}
thermo 2000
timestep ${timestep}
timestep 0.002

neighbor 0.5 bin
neigh_modify every 1 delay ${neighborstep} check yes
neigh_modify every 1 delay 20 check yes

#velocity all create ${temp} ${id} dist gaussian
fix 1 all nvt temp ${temp} ${temp} ${taut}
fix 1 all nvt temp 1 ${temp} ${taut}
fix 1 all nvt temp 1 1 ${taut}
fix 1 all nvt temp 1 1 0.2
Resetting global fix info from restart file:
  fix style: nvt, fix ID: 1

variable steps4 equal ${steps}/4
variable steps4 equal 50000/4
run ${steps4}
run 12500
Generated 0 of 1 mixed pair_coeff terms from geometric mixing rule
All restart file global fix info was re-assigned
Neighbor list info ...
  update: every = 1 steps, delay = 20 steps, check = yes
  max neighbors/atom: 2000, page size: 100000
  master list distance cutoff = 3
  ghost atom cutoff = 3
  binsize = 1.5, bins = 5 5 5
  1 neighbor lists, perpetual/occasional/extra = 1 0 0
  (1) pair lj/cut, perpetual
      attributes: half, newton on
      pair build: half/bin/atomonly/newton
      stencil: half/bin/3d
      bin: standard
Per MPI rank memory allocation (min/avg/max) = 3.147 | 3.148 | 3.148 Mbytes
   Step          Temp          E_pair         E_mol          TotEng         Press     
         0   1.0205509     -6.004798       0             -4.4771609      10.145833    
      2000   1.0256116     -5.9292717      0             -4.3940593      10.4944      
      4000   0.99093862    -6.0262735      0             -4.5429623      9.7398996    
      6000   1.0221552     -5.9509255      0             -4.4208869      10.225098    
      8000   1.0345702     -6.0667867      0             -4.5181645      9.6585883    
     10000   0.98149121    -6.0651403      0             -4.5959707      9.4973223    
     12000   1.0316096     -5.9981127      0             -4.4539221      10.137851    
     12500   1.0259106     -5.9686164      0             -4.4329564      10.246734    
Loop time of 1.48778 on 4 procs for 12500 steps with 480 atoms

Performance: 1451832.364 tau/day, 8401.808 timesteps/s, 4.033 Matom-step/s
99.0% CPU use with 4 MPI tasks x 1 OpenMP threads

MPI task timing breakdown:
Section |  min time  |  avg time  |  max time  |%varavg| %total
---------------------------------------------------------------
Pair    | 0.8907     | 0.93655    | 1.0469     |   6.7 | 62.95
Neigh   | 0.082599   | 0.0843     | 0.086325   |   0.5 |  5.67
Comm    | 0.28575    | 0.39545    | 0.44144    |  10.2 | 26.58
Output  | 0.015388   | 0.018543   | 0.0251     |   2.8 |  1.25
Modify  | 0.033638   | 0.035893   | 0.037547   |   0.8 |  2.41
Other   |            | 0.01705    |            |       |  1.15

Nlocal:            120 ave         123 max         113 min
Histogram: 1 0 0 0 0 0 0 0 1 2
Nghost:         1371.5 ave        1395 max        1350 min
Histogram: 1 0 1 0 0 0 1 0 0 1
Neighs:        6919.25 ave        7247 max        6427 min
Histogram: 1 0 0 0 0 0 1 1 0 1

Total # of neighbors = 27677
Ave neighs/atom = 57.660417
Neighbor list builds = 349
Dangerous builds = 0
Total wall time: 0:00:01
