
include ${pot}.lmp
include kalj.lmp
units lj
atom_style atomic

variable dimensions equal 3
variable density equal 1.2
variable fraca equal 0.8

dimension ${dimensions}
dimension 3
read_restart ${prevbasename}.final.lmprestart.${prevsteps}
read_restart equil/kalj_T0.6_n480_v400_1000000_1.final.lmprestart.${prevsteps}
read_restart equil/kalj_T0.6_n480_v400_1000000_1.final.lmprestart.1000000
Reading restart file ...
  restart file = 15 Sep 2022, LAMMPS = 15 Sep 2022
  restoring atom style atomic from restart
  orthogonal box = (0 0 0) to (7.368063 7.368063 7.368063)
  1 by 2 by 2 MPI processor grid
  restoring pair style lj/cut from restart
  480 atoms
  read_restart CPU = 0.002 seconds
include ${pot}_particles.lmp
include kalj_particles.lmp
mass * 1.0 #  set mass 1.0 for all types

pair_style lj/cut 2.5
#pair coeffs type1 type2 eps sigma
pair_coeff 1 1 1.0 1.00 2.5
pair_coeff 1 2 1.5 0.80 2.0
pair_coeff 2 2 0.5 0.88 2.2
pair_modify shift yes
reset_timestep 0

print "Setting up annealing run"
Setting up annealing run
dump 1 all atom ${dumptime} ${basename}.lammpstrj
dump 1 all atom 300000 ${basename}.lammpstrj
dump 1 all atom 300000 equil/kalj_T0.55_n480_v400_3000000_1.lammpstrj
#dump_modify 1 sort id scale no

restart ${restarttime} ${basename}.restart
restart 3000000 ${basename}.restart
restart 3000000 equil/kalj_T0.55_n480_v400_3000000_1.restart
restart ${steps} ${basename}.final.lmprestart
restart 3000000 ${basename}.final.lmprestart
restart 3000000 equil/kalj_T0.55_n480_v400_3000000_1.final.lmprestart

thermo ${thermotime}
thermo 30000
timestep ${timestep}
timestep 0.003

neighbor 0.5 bin
neigh_modify every 1 delay ${neighborstep} check yes
neigh_modify every 1 delay 25 check yes

velocity all create ${temp} ${id} dist gaussian
velocity all create 0.55 ${id} dist gaussian
velocity all create 0.55 1 dist gaussian
fix 1 all nvt temp ${temp} ${temp} ${taut}
fix 1 all nvt temp 0.55 ${temp} ${taut}
fix 1 all nvt temp 0.55 0.55 ${taut}
fix 1 all nvt temp 0.55 0.55 0.3
Resetting global fix info from restart file:
  fix style: nvt, fix ID: 1
run ${steps}
run 3000000
Generated 0 of 1 mixed pair_coeff terms from geometric mixing rule
All restart file global fix info was re-assigned
Neighbor list info ...
  update: every = 1 steps, delay = 25 steps, check = yes
  max neighbors/atom: 2000, page size: 100000
  master list distance cutoff = 3
  ghost atom cutoff = 3
  binsize = 1.5, bins = 5 5 5
  1 neighbor lists, perpetual/occasional/extra = 1 0 0
  (1) pair lj/cut, perpetual
      attributes: half, newton on
      pair build: half/bin/atomonly/newton
      stencil: half/bin/3d
      bin: standard
Per MPI rank memory allocation (min/avg/max) = 4.122 | 4.122 | 4.123 Mbytes
   Step          Temp          E_pair         E_mol          TotEng         Press     
         0   0.55          -6.7118758      0             -5.8885945      4.9708376    
     30000   0.5789454     -6.7864023      0             -5.9197934      4.6380497    
     60000   0.56311241    -6.8512818      0             -6.0083729      4.2767097    
     90000   0.52762623    -6.7980339      0             -6.0082434      4.6224766    
    120000   0.51828089    -6.7782883      0             -6.0024865      4.5524643    
    150000   0.53831561    -6.8312065      0             -6.0254153      4.3444147    
    180000   0.55129102    -6.7503816      0             -5.9251679      4.9134934    
    210000   0.53456971    -6.8314242      0             -6.0312401      4.2729488    
    240000   0.55568935    -6.7990683      0             -5.9672708      4.4821455    
    270000   0.52692012    -6.8299354      0             -6.0412018      4.1536264    
    300000   0.54576694    -6.7407214      0             -5.9237765      4.7214772    
    330000   0.54541918    -6.7725115      0             -5.9560872      4.7251194    
    360000   0.54077111    -6.8020407      0             -5.992574       4.4812913    
    390000   0.52475514    -6.7582808      0             -5.9727879      4.7106626    
    420000   0.54929501    -6.7412218      0             -5.9189958      4.9560197    
    450000   0.53752331    -6.8306117      0             -6.0260065      4.2283709    
    480000   0.56308595    -6.8620054      0             -6.0191361      4.1169678    
    510000   0.52610699    -6.8099095      0             -6.0223931      4.4339336    
    540000   0.5763679     -6.7885545      0             -5.9258038      4.4938766    
    570000   0.53030414    -6.7683388      0             -5.9745398      4.7064771    
    600000   0.55957299    -6.7878117      0             -5.9502009      4.4639684    
    630000   0.54707195    -6.7842773      0             -5.965379       4.6356202    
    660000   0.53407935    -6.7721777      0             -5.9727277      4.5767071    
    690000   0.58198507    -6.7850334      0             -5.9138745      4.536514     
    720000   0.58547852    -6.8470615      0             -5.9706734      4.1787709    
    750000   0.55558047    -6.8088082      0             -5.9771737      4.580768     
    780000   0.56809645    -6.8213344      0             -5.970965       4.4216565    
    810000   0.56523665    -6.8133775      0             -5.9672889      4.5162974    
    840000   0.53686105    -6.8022471      0             -5.9986333      4.5093554    
    870000   0.53014385    -6.8627162      0             -6.0691571      4.0890333    
    900000   0.57588261    -6.8225467      0             -5.9605224      4.407674     
    930000   0.55278568    -6.8280557      0             -6.0006046      4.3677444    
    960000   0.59961799    -6.8718255      0             -5.9742724      4.0710613    
    990000   0.54886931    -6.7805134      0             -5.9589247      4.6097849    
   1020000   0.53345207    -6.8381421      0             -6.039631       4.2069965    
   1050000   0.53099769    -6.8428405      0             -6.0480034      4.0848762    
   1080000   0.54923942    -6.8549754      0             -6.0328326      4.2108407    
   1110000   0.5317978     -6.789859       0             -5.9938242      4.5790551    
   1140000   0.5582048     -6.7873904      0             -5.9518276      4.5769962    
   1170000   0.54265611    -6.8115205      0             -5.9992321      4.3984196    
   1200000   0.55147033    -6.8934925      0             -6.0680104      3.8869044    
   1230000   0.52264675    -6.8512174      0             -6.0688806      4.2061038    
   1260000   0.56146737    -6.8043481      0             -5.9639016      4.4850057    
   1290000   0.54930685    -6.7952834      0             -5.9730397      4.6063617    
   1320000   0.54654759    -6.7855866      0             -5.9674732      4.6208971    
   1350000   0.55580798    -6.7888025      0             -5.9568274      4.5700336    
   1380000   0.54511812    -6.8066618      0             -5.9906881      4.3213907    
   1410000   0.5589139     -6.8017186      0             -5.9650944      4.5609096    
   1440000   0.54093315    -6.8180343      0             -6.008325       4.4153017    
   1470000   0.52514368    -6.7884972      0             -6.0024227      4.5817064    
   1500000   0.54331352    -6.7586879      0             -5.9454155      4.8002708    
   1530000   0.54861994    -6.8210447      0             -5.9998293      4.3123678    
   1560000   0.55267238    -6.7779063      0             -5.9506249      4.6458137    
   1590000   0.54973916    -6.7906729      0             -5.9677821      4.4811821    
   1620000   0.55792802    -6.821822       0             -5.9866734      4.321928     
   1650000   0.53384995    -6.8244897      0             -6.0253831      4.3351655    
   1680000   0.56620779    -6.8007852      0             -5.9532429      4.5841164    
   1710000   0.55418529    -6.8081099      0             -5.9785638      4.4571691    
   1740000   0.56901928    -6.7737788      0             -5.922028       4.6971647    
   1770000   0.56004895    -6.808475       0             -5.9701518      4.3894819    
   1800000   0.55335836    -6.7949547      0             -5.9666464      4.6072335    
   1830000   0.5403751     -6.8714319      0             -6.062558       4.0429619    
   1860000   0.54857602    -6.8048227      0             -5.983673       4.4359209    
   1890000   0.57461989    -6.77584        0             -5.9157058      4.8901159    
   1920000   0.56785129    -6.8190706      0             -5.9690682      4.3642705    
   1950000   0.54464199    -6.8123234      0             -5.9970624      4.4539426    
   1980000   0.53283067    -6.7850934      0             -5.9875125      4.5611514    
   2010000   0.48559603    -6.7800062      0             -6.0531297      4.4042762    
   2040000   0.54506774    -6.7948692      0             -5.978971       4.5322645    
   2070000   0.5531775     -6.7712301      0             -5.9431925      4.6930203    
   2100000   0.56413956    -6.7958067      0             -5.9513603      4.6030852    
   2130000   0.57093565    -6.8380227      0             -5.9834034      4.311755     
   2160000   0.53255492    -6.7949025      0             -5.9977343      4.5075688    
   2190000   0.55254616    -6.7699561      0             -5.9428636      4.5817992    
   2220000   0.54909019    -6.8356387      0             -6.0137193      4.3732316    
   2250000   0.53595186    -6.8150341      0             -6.0127812      4.2916875    
   2280000   0.54844497    -6.7507551      0             -5.9298016      4.8506812    
   2310000   0.55456863    -6.7833539      0             -5.953234       4.562463     
   2340000   0.57692716    -6.7750985      0             -5.9115106      4.7112633    
   2370000   0.55234543    -6.7986646      0             -5.9718725      4.3420843    
   2400000   0.54887096    -6.8344908      0             -6.0128996      4.2932902    
   2430000   0.57206464    -6.80358        0             -5.9472707      4.4313278    
   2460000   0.52224242    -6.8469752      0             -6.0652435      4.1813465    
   2490000   0.51859782    -6.76473        0             -5.9884538      4.5196191    
   2520000   0.57785955    -6.831234       0             -5.9662504      4.2854245    
   2550000   0.54549027    -6.8304531      0             -6.0139224      4.4066114    
   2580000   0.51341501    -6.8045502      0             -6.0360321      4.561378     
   2610000   0.54725637    -6.8485005      0             -6.0293261      4.2539577    
   2640000   0.56577332    -6.8576545      0             -6.0107626      4.0676478    
   2670000   0.53591901    -6.8141803      0             -6.0119766      4.3394094    
   2700000   0.52917062    -6.8238342      0             -6.031732       4.35568      
   2730000   0.56579238    -6.775383       0             -5.9284625      4.6774198    
   2760000   0.57260407    -6.7826617      0             -5.925545       4.5810334    
   2790000   0.5618949     -6.7999797      0             -5.9588933      4.3574487    
   2820000   0.53770155    -6.7450258      0             -5.9401538      4.7783241    
   2850000   0.5192339     -6.7358916      0             -5.9586633      4.7271091    
   2880000   0.57836016    -6.7654908      0             -5.899758       4.5753132    
   2910000   0.57050633    -6.7971855      0             -5.9432089      4.596398     
   2940000   0.56658674    -6.8261987      0             -5.9780892      4.2985611    
   2970000   0.5124915     -6.8014674      0             -6.0343317      4.422903     
   3000000   0.5502435     -6.7782858      0             -5.9546401      4.5396857    
Loop time of 329.085 on 4 procs for 3000000 steps with 480 atoms

Performance: 2362913.444 tau/day, 9116.178 timesteps/s, 4.376 Matom-step/s
99.6% CPU use with 4 MPI tasks x 1 OpenMP threads

MPI task timing breakdown:
Section |  min time  |  avg time  |  max time  |%varavg| %total
---------------------------------------------------------------
Pair    | 217.06     | 218.32     | 220.2      |   7.8 | 66.34
Neigh   | 21.043     | 21.324     | 22.008     |   8.6 |  6.48
Comm    | 76.166     | 77.988     | 79.367     |  13.3 | 23.70
Output  | 0.0078275  | 0.0084787  | 0.010399   |   1.2 |  0.00
Modify  | 8.2893     | 8.5344     | 8.6795     |   5.5 |  2.59
Other   |            | 2.91       |            |       |  0.88

Nlocal:            120 ave         123 max         117 min
Histogram: 1 1 0 0 0 0 0 0 1 1
Nghost:        1388.75 ave        1395 max        1378 min
Histogram: 1 0 0 0 0 0 1 0 1 1
Neighs:           6931 ave        7194 max        6661 min
Histogram: 1 0 1 0 0 0 0 0 1 1

Total # of neighbors = 27724
Ave neighs/atom = 57.758333
Neighbor list builds = 87533
Dangerous builds = 903
Total wall time: 0:05:29
