
include ${pot}.lmp
include kalj.lmp
units lj
atom_style atomic

variable dimensions equal 3
variable density equal 1.2
variable fraca equal 0.8

dimension ${dimensions}
dimension 3
read_restart ${prevbasename}.final.lmprestart.${prevsteps}
read_restart equil/kalj_T1_n480_v400_50000_1.final.lmprestart.${prevsteps}
read_restart equil/kalj_T1_n480_v400_50000_1.final.lmprestart.50000
Reading restart file ...
  restart file = 15 Sep 2022, LAMMPS = 15 Sep 2022
  restoring atom style atomic from restart
  orthogonal box = (0 0 0) to (7.368063 7.368063 7.368063)
  1 by 2 by 2 MPI processor grid
  restoring pair style lj/cut from restart
  480 atoms
  read_restart CPU = 0.008 seconds
include ${pot}_particles.lmp
include kalj_particles.lmp
mass * 1.0 #  set mass 1.0 for all types

pair_style lj/cut 2.5
#pair coeffs type1 type2 eps sigma
pair_coeff 1 1 1.0 1.00 2.5
pair_coeff 1 2 1.5 0.80 2.0
pair_coeff 2 2 0.5 0.88 2.2
pair_modify shift yes
reset_timestep 0

print "Setting up annealing run"
Setting up annealing run
dump 1 all atom ${dumptime} ${basename}.lammpstrj
dump 1 all atom 50000 ${basename}.lammpstrj
dump 1 all atom 50000 equil/kalj_T0.9_n480_v400_150000_1.lammpstrj
#dump_modify 1 sort id scale no

restart ${restarttime} ${basename}.restart
restart 150000 ${basename}.restart
restart 150000 equil/kalj_T0.9_n480_v400_150000_1.restart
restart ${steps} ${basename}.final.lmprestart
restart 150000 ${basename}.final.lmprestart
restart 150000 equil/kalj_T0.9_n480_v400_150000_1.final.lmprestart

thermo ${thermotime}
thermo 5000
timestep ${timestep}
timestep 0.002

neighbor 0.5 bin
neigh_modify every 1 delay ${neighborstep} check yes
neigh_modify every 1 delay 25 check yes

velocity all create ${temp} ${id} dist gaussian
velocity all create 0.9 ${id} dist gaussian
velocity all create 0.9 1 dist gaussian
fix 1 all nvt temp ${temp} ${temp} ${taut}
fix 1 all nvt temp 0.9 ${temp} ${taut}
fix 1 all nvt temp 0.9 0.9 ${taut}
fix 1 all nvt temp 0.9 0.9 0.2
Resetting global fix info from restart file:
  fix style: nvt, fix ID: 1
run ${steps}
run 150000
Generated 0 of 1 mixed pair_coeff terms from geometric mixing rule
All restart file global fix info was re-assigned
Neighbor list info ...
  update: every = 1 steps, delay = 25 steps, check = yes
  max neighbors/atom: 2000, page size: 100000
  master list distance cutoff = 3
  ghost atom cutoff = 3
  binsize = 1.5, bins = 5 5 5
  1 neighbor lists, perpetual/occasional/extra = 1 0 0
  (1) pair lj/cut, perpetual
      attributes: half, newton on
      pair build: half/bin/atomonly/newton
      stencil: half/bin/3d
      bin: standard
Per MPI rank memory allocation (min/avg/max) = 4.123 | 4.123 | 4.123 Mbytes
   Step          Temp          E_pair         E_mol          TotEng         Press     
         0   0.9           -6.004798       0             -4.6576105      10.001473    
      5000   0.89743211    -6.2371604      0             -4.8938167      8.4096623    
     10000   0.86496164    -6.2070718      0             -4.9123323      8.6030615    
     15000   0.88190615    -6.1778938      0             -4.8577906      8.7251488    
     20000   0.94261321    -6.1834707      0             -4.7724965      8.7006984    
     25000   0.95441422    -6.2115277      0             -4.7828889      8.4466886    
     30000   0.88392669    -6.2845556      0             -4.9614279      8.1515624    
     35000   0.93629929    -6.0811779      0             -4.6796549      9.3833274    
     40000   0.87592444    -6.17242        0             -4.8612706      8.7182785    
     45000   0.89482335    -6.1531817      0             -4.813743       8.9084375    
     50000   0.90614325    -6.1680191      0             -4.811636       8.9600781    
     55000   0.88449129    -6.1647986      0             -4.8408257      8.7330421    
     60000   0.91994557    -6.2053123      0             -4.8282688      8.7328573    
     65000   0.85291721    -6.1848108      0             -4.9081004      8.7833573    
     70000   0.89572983    -6.1594566      0             -4.818661       8.8370326    
     75000   0.96056407    -6.1395363      0             -4.7016919      9.064489     
     80000   0.9086721     -6.2462539      0             -4.8860854      8.2061019    
     85000   0.87404661    -6.1516363      0             -4.8432977      8.8545472    
     90000   0.8876805     -6.2058571      0             -4.8771104      8.575828     
     95000   0.92463438    -6.175683       0             -4.7916209      8.9437741    
    100000   0.89005995    -6.0858198      0             -4.7535113      9.3437813    
    105000   0.89605734    -6.119945       0             -4.7786591      9.0173603    
    110000   0.94439443    -6.1209509      0             -4.7073105      9.1805513    
    115000   0.87679873    -6.1999025      0             -4.8874444      8.5455594    
    120000   0.86632265    -6.2163543      0             -4.9195776      8.4367732    
    125000   0.92701898    -6.1857039      0             -4.7980723      8.6122999    
    130000   0.8996674     -6.1818716      0             -4.835182       8.7658551    
    135000   0.85542408    -6.2267241      0             -4.9462612      8.28028      
    140000   0.89603224    -6.1455071      0             -4.8042588      8.9920508    
    145000   0.87792883    -6.1634851      0             -4.8493354      8.8267509    
    150000   0.89745427    -6.2434841      0             -4.9001073      8.3090823    
Loop time of 16.5907 on 4 procs for 150000 steps with 480 atoms

Performance: 1562323.651 tau/day, 9041.225 timesteps/s, 4.340 Matom-step/s
99.6% CPU use with 4 MPI tasks x 1 OpenMP threads

MPI task timing breakdown:
Section |  min time  |  avg time  |  max time  |%varavg| %total
---------------------------------------------------------------
Pair    | 10.78      | 11.058     | 11.364     |   6.4 | 66.65
Neigh   | 0.94826    | 0.95533    | 0.96653    |   0.7 |  5.76
Comm    | 3.6808     | 3.9927     | 4.2717     |  10.7 | 24.07
Output  | 0.0017069  | 0.001782   | 0.0020054  |   0.3 |  0.01
Modify  | 0.41812    | 0.42584    | 0.4331     |   1.1 |  2.57
Other   |            | 0.157      |            |       |  0.95

Nlocal:            120 ave         124 max         116 min
Histogram: 1 0 0 1 0 0 1 0 0 1
Nghost:        1374.75 ave        1399 max        1351 min
Histogram: 1 0 0 1 0 0 1 0 0 1
Neighs:           6938 ave        7164 max        6683 min
Histogram: 1 0 0 0 0 2 0 0 0 1

Total # of neighbors = 27752
Ave neighs/atom = 57.816667
Neighbor list builds = 3950
Dangerous builds = 2
Total wall time: 0:00:16
