
include ${pot}.lmp
include kalj.lmp
units lj
atom_style atomic

variable dimensions equal 3
variable density equal 1.2
variable fraca equal 0.8

dimension ${dimensions}
dimension 3

#setup box
variable boxlength equal exp(ln(${volume})/${dimensions})
variable boxlength equal exp(ln(400)/${dimensions})
variable boxlength equal exp(ln(400)/3)
variable ntypea equal floor(${fraca}*${natoms})
variable ntypea equal floor(0.8*${natoms})
variable ntypea equal floor(0.8*480)
variable bstart equal ${ntypea}+1
variable bstart equal 384+1
variable ntypeb equal ${natoms}-${ntypea}
variable ntypeb equal 480-${ntypea}
variable ntypeb equal 480-384

lattice fcc ${density}
lattice fcc 1.2
Lattice spacing in x,y,z = 1.4938016 1.4938016 1.4938016
region box01 block 0 ${boxlength} 0 ${boxlength} 0 ${boxlength} units box
region box01 block 0 7.36806299728077 0 ${boxlength} 0 ${boxlength} units box
region box01 block 0 7.36806299728077 0 7.36806299728077 0 ${boxlength} units box
region box01 block 0 7.36806299728077 0 7.36806299728077 0 7.36806299728077 units box
create_box 2 box01 # 2 atomtypes
Created orthogonal box = (0 0 0) to (7.368063 7.368063 7.368063)
  1 by 2 by 2 MPI processor grid
create_atoms 1 box
Created 500 atoms
  using lattice units in orthogonal box = (0 0 0) to (7.368063 7.368063 7.368063)
  create_atoms CPU = 0.000 seconds

set atom ${bstart}* type 2
set atom 385* type 2
Setting atom values ...
  116 settings made for type
group extra id > ${natoms}
group extra id > 480
20 atoms in group extra
delete_atoms group extra
Deleted 20 atoms, new total = 480
group typea type 1
384 atoms in group typea
group typeb type 2
96 atoms in group typeb

include ${pot}_particles.lmp
include kalj_particles.lmp
mass * 1.0 #  set mass 1.0 for all types

pair_style lj/cut 2.5
#pair coeffs type1 type2 eps sigma
pair_coeff 1 1 1.0 1.00 2.5
pair_coeff 1 2 1.5 0.80 2.0
pair_coeff 2 2 0.5 0.88 2.2
pair_modify shift yes

print "Minimizing initial structure"
Minimizing initial structure
restart ${minsteps} ${basename}.final.lmprestart
restart 10000 ${basename}.final.lmprestart
restart 10000 equil/kalj_T2_n480_v400_10000_1.final.lmprestart
dump 1 all atom ${dumptime} ${basename}.lammpstrj
dump 1 all atom 10000 ${basename}.lammpstrj
dump 1 all atom 10000 equil/kalj_T2_n480_v400_10000_1.lammpstrj
thermo ${thermotime}
thermo 1000
timestep ${timestep}
timestep 0.001
neighbor 0.5 bin
neigh_modify every 1 delay 0 check yes
fix 1 all nve/limit 0.1
run ${minsteps}
run 10000
Generated 0 of 1 mixed pair_coeff terms from geometric mixing rule
Neighbor list info ...
  update: every = 1 steps, delay = 0 steps, check = yes
  max neighbors/atom: 2000, page size: 100000
  master list distance cutoff = 3
  ghost atom cutoff = 3
  binsize = 1.5, bins = 5 5 5
  1 neighbor lists, perpetual/occasional/extra = 1 0 0
  (1) pair lj/cut, perpetual
      attributes: half, newton on
      pair build: half/bin/atomonly/newton
      stencil: half/bin/3d
      bin: standard
Per MPI rank memory allocation (min/avg/max) = 4.134 | 4.138 | 4.143 Mbytes
   Step          Temp          E_pair         E_mol          TotEng         Press     
         0   0             -5.4233338      0             -5.4233338      13.690924    
      1000   0.41848763    -6.0498663      0             -5.4234426      8.6880616    
      2000   0.40894772    -6.035588       0             -5.4234444      8.7094921    
      3000   0.44843128    -6.0946971      0             -5.4234515      8.36151      
      4000   0.51602106    -6.1958771      0             -5.4234581      7.7962039    
      5000   0.56725146    -6.272571       0             -5.4234664      7.5496427    
      6000   0.5898107     -6.3063467      0             -5.4234738      7.3287354    
      7000   0.60034343    -6.3221043      0             -5.4234653      7.2561809    
      8000   0.63635267    -6.3759964      0             -5.423456       7.0360789    
      9000   0.6460243     -6.3904783      0             -5.4234607      7.1466821    
     10000   0.69766319    -6.4677879      0             -5.4234733      6.9007952    
Loop time of 1.18064 on 4 procs for 10000 steps with 480 atoms

Performance: 731809.250 tau/day, 8470.014 timesteps/s, 4.066 Matom-step/s
99.7% CPU use with 4 MPI tasks x 1 OpenMP threads

MPI task timing breakdown:
Section |  min time  |  avg time  |  max time  |%varavg| %total
---------------------------------------------------------------
Pair    | 0.60204    | 0.75556    | 0.88038    |  11.4 | 64.00
Neigh   | 0.02057    | 0.024166   | 0.028792   |   1.9 |  2.05
Comm    | 0.24004    | 0.36132    | 0.51062    |  16.1 | 30.60
Output  | 0.0015488  | 0.0015742  | 0.001633   |   0.1 |  0.13
Modify  | 0.010194   | 0.012309   | 0.014727   |   1.5 |  1.04
Other   |            | 0.0257     |            |       |  2.18

Nlocal:            120 ave         153 max          96 min
Histogram: 1 0 1 1 0 0 0 0 0 1
Nghost:        1384.75 ave        1507 max        1274 min
Histogram: 1 0 0 0 2 0 0 0 0 1
Neighs:        7082.75 ave        8678 max        5755 min
Histogram: 1 0 0 1 1 0 0 0 0 1

Total # of neighbors = 28331
Ave neighs/atom = 59.022917
Neighbor list builds = 101
Dangerous builds = 0
Total wall time: 0:00:01
