
include ${pot}.lmp
include kalj.lmp
units lj
atom_style atomic

variable dimensions equal 3
variable density equal 1.2
variable fraca equal 0.8

dimension ${dimensions}
dimension 3
read_restart ${prevbasename}.final.lmprestart.${prevsteps}
read_restart equil/kalj_T0.55_n480_v400_3000000_1.final.lmprestart.${prevsteps}
read_restart equil/kalj_T0.55_n480_v400_3000000_1.final.lmprestart.3000000
Reading restart file ...
  restart file = 15 Sep 2022, LAMMPS = 15 Sep 2022
  restoring atom style atomic from restart
  orthogonal box = (0 0 0) to (7.368063 7.368063 7.368063)
  1 by 2 by 2 MPI processor grid
  restoring pair style lj/cut from restart
  480 atoms
  read_restart CPU = 0.006 seconds
include ${pot}_particles.lmp
include kalj_particles.lmp
mass * 1.0 #  set mass 1.0 for all types

pair_style lj/cut 2.5
#pair coeffs type1 type2 eps sigma
pair_coeff 1 1 1.0 1.00 2.5
pair_coeff 1 2 1.5 0.80 2.0
pair_coeff 2 2 0.5 0.88 2.2
pair_modify shift yes
reset_timestep 0

print "Setting up annealing run"
Setting up annealing run
dump 1 all atom ${dumptime} ${basename}.lammpstrj
dump 1 all atom 1000000 ${basename}.lammpstrj
dump 1 all atom 1000000 equil/kalj_T0.5_n480_v400_10000000_1.lammpstrj
#dump_modify 1 sort id scale no

restart ${restarttime} ${basename}.restart
restart 10000000 ${basename}.restart
restart 10000000 equil/kalj_T0.5_n480_v400_10000000_1.restart
restart ${steps} ${basename}.final.lmprestart
restart 10000000 ${basename}.final.lmprestart
restart 10000000 equil/kalj_T0.5_n480_v400_10000000_1.final.lmprestart

thermo ${thermotime}
thermo 100000
timestep ${timestep}
timestep 0.003

neighbor 0.5 bin
neigh_modify every 1 delay ${neighborstep} check yes
neigh_modify every 1 delay 25 check yes

velocity all create ${temp} ${id} dist gaussian
velocity all create 0.5 ${id} dist gaussian
velocity all create 0.5 1 dist gaussian
fix 1 all nvt temp ${temp} ${temp} ${taut}
fix 1 all nvt temp 0.5 ${temp} ${taut}
fix 1 all nvt temp 0.5 0.5 ${taut}
fix 1 all nvt temp 0.5 0.5 0.3
Resetting global fix info from restart file:
  fix style: nvt, fix ID: 1
run ${steps}
run 10000000
Generated 0 of 1 mixed pair_coeff terms from geometric mixing rule
All restart file global fix info was re-assigned
Neighbor list info ...
  update: every = 1 steps, delay = 25 steps, check = yes
  max neighbors/atom: 2000, page size: 100000
  master list distance cutoff = 3
  ghost atom cutoff = 3
  binsize = 1.5, bins = 5 5 5
  1 neighbor lists, perpetual/occasional/extra = 1 0 0
  (1) pair lj/cut, perpetual
      attributes: half, newton on
      pair build: half/bin/atomonly/newton
      stencil: half/bin/3d
      bin: standard
Per MPI rank memory allocation (min/avg/max) = 4.124 | 4.125 | 4.125 Mbytes
   Step          Temp          E_pair         E_mol          TotEng         Press     
         0   0.5           -6.7782858      0             -6.0298483      4.4795192    
    100000   0.48589267    -6.9406397      0             -6.2133191      3.4651053    
    200000   0.51871594    -6.8788386      0             -6.1023857      3.9345291    
    300000   0.4936149     -6.8490604      0             -6.1101806      4.1343528    
    400000   0.50123746    -6.8684495      0             -6.1181596      4.2032826    
    500000   0.495288      -6.9554312      0             -6.214047       3.5306195    
    600000   0.51261979    -6.8545755      0             -6.0872478      4.1295367    
    700000   0.49305261    -6.906751       0             -6.1687129      3.6769722    
    800000   0.51933148    -6.8937204      0             -6.1163461      3.9637708    
    900000   0.5217921     -6.9173352      0             -6.1362776      3.7432839    
   1000000   0.48911879    -6.8459371      0             -6.1137874      4.0585268    
   1100000   0.48731261    -6.9068373      0             -6.1773912      3.8253846    
   1200000   0.46953541    -6.8887977      0             -6.1859619      3.889936     
   1300000   0.50276086    -6.8991856      0             -6.1466154      3.7107271    
   1400000   0.51341514    -6.8777149      0             -6.1091967      4.1213077    
   1500000   0.54482345    -6.9066273      0             -6.0910947      3.80222      
   1600000   0.49957428    -6.9074564      0             -6.1596562      3.7672542    
   1700000   0.48775147    -6.9618491      0             -6.2317461      3.5287275    
   1800000   0.48362209    -6.9224617      0             -6.1985399      3.7092246    
   1900000   0.50199309    -6.8707632      0             -6.1193423      3.9195897    
   2000000   0.50816085    -6.8645618      0             -6.1039086      4.1296422    
   2100000   0.52160413    -6.8513266      0             -6.0705504      4.0053536    
   2200000   0.50256437    -6.8883061      0             -6.13603        3.9772396    
   2300000   0.51307958    -6.9115737      0             -6.1435577      3.7052879    
   2400000   0.46246739    -6.9191563      0             -6.2269004      3.797325     
   2500000   0.50470143    -6.9403052      0             -6.1848302      3.6072848    
   2600000   0.51287569    -6.9584001      0             -6.1906893      3.5807277    
   2700000   0.5226088     -6.9471248      0             -6.1648448      3.4496081    
   2800000   0.47250892    -6.9403907      0             -6.2331039      3.6472485    
   2900000   0.46742634    -6.9299727      0             -6.2302939      3.4319278    
   3000000   0.51496436    -6.997124       0             -6.2262867      3.1409803    
   3100000   0.44949793    -6.9052834      0             -6.2324412      3.6950536    
   3200000   0.52112813    -6.904554       0             -6.1244903      3.8387208    
   3300000   0.4871716     -6.8822339      0             -6.1529989      3.9028063    
   3400000   0.50789939    -6.8892763      0             -6.1290144      3.8547056    
   3500000   0.48219437    -6.8651382      0             -6.1433535      4.0019639    
   3600000   0.4749231     -6.897648       0             -6.1867474      3.8989727    
   3700000   0.51518696    -6.8920492      0             -6.1208787      3.8366665    
   3800000   0.51968771    -7.0187159      0             -6.2408084      3.0517409    
   3900000   0.48558044    -6.9615555      0             -6.2347022      3.5422767    
   4000000   0.47711857    -6.9353525      0             -6.2211656      3.728099     
   4100000   0.49619412    -6.9458796      0             -6.203139       3.5459884    
   4200000   0.49179159    -6.9482536      0             -6.2121031      3.4945153    
   4300000   0.51689803    -6.8734786      0             -6.0997469      4.0680088    
   4400000   0.47844965    -6.9482858      0             -6.2321065      3.5775831    
   4500000   0.56083444    -6.872139       0             -6.03264        4.1633751    
   4600000   0.47388033    -6.8699081      0             -6.1605684      3.8545024    
   4700000   0.51383133    -6.8744974      0             -6.1053561      4.0002213    
   4800000   0.51229439    -6.8356825      0             -6.0688419      4.2860344    
   4900000   0.48751794    -6.971654       0             -6.2419006      3.2765314    
   5000000   0.49973039    -6.9225422      0             -6.1745082      3.5679731    
   5100000   0.49786036    -6.9259715      0             -6.1807368      3.6072746    
   5200000   0.46848929    -6.8969093      0             -6.1956394      3.6966031    
   5300000   0.5065507     -6.9253011      0             -6.167058       3.6061991    
   5400000   0.49575473    -6.9575496      0             -6.2154667      3.3916671    
   5500000   0.48484158    -6.8734663      0             -6.1477191      3.8149544    
   5600000   0.49336264    -6.9502301      0             -6.2117279      3.4654568    
   5700000   0.47047468    -6.8693918      0             -6.16515        4.0024412    
   5800000   0.4628772     -6.9317272      0             -6.2388579      3.6645739    
   5900000   0.50868206    -6.9437535      0             -6.1823201      3.4873423    
   6000000   0.50070074    -6.8594837      0             -6.1099972      4.0387497    
   6100000   0.52152543    -6.8807444      0             -6.1000861      3.9677591    
   6200000   0.48094541    -6.8577007      0             -6.1377855      3.9937175    
   6300000   0.52829433    -6.9472268      0             -6.1564362      3.6148285    
   6400000   0.51650577    -6.9151644      0             -6.1420198      3.635945     
   6500000   0.45297992    -6.9187436      0             -6.2406893      3.6324009    
   6600000   0.48496839    -6.9432482      0             -6.2173111      3.3770048    
   6700000   0.52372388    -6.8639945      0             -6.0800453      4.1596041    
   6800000   0.49529992    -6.8769024      0             -6.1355003      4.0157583    
   6900000   0.50110206    -6.923751       0             -6.1736639      3.6237876    
   7000000   0.50048831    -6.8609619      0             -6.1117935      4.0303582    
   7100000   0.51303733    -6.8712116      0             -6.1032588      3.9158406    
   7200000   0.4618372     -6.8728721      0             -6.1815595      3.8496934    
   7300000   0.49257741    -6.875934       0             -6.1386071      4.0045858    
   7400000   0.49369099    -6.9066413      0             -6.1676476      3.7946558    
   7500000   0.47260234    -6.8597292      0             -6.1523026      4.0763867    
   7600000   0.5046582     -6.9141539      0             -6.1587437      3.7955086    
   7700000   0.48934809    -6.9526285      0             -6.2201356      3.3942464    
   7800000   0.46376574    -6.9682896      0             -6.2740903      3.3990431    
   7900000   0.53620431    -6.8987171      0             -6.0960863      3.840366     
   8000000   0.47948118    -6.8800476      0             -6.1623242      3.8324142    
   8100000   0.51605366    -6.9022283      0             -6.1297605      3.7674035    
   8200000   0.48028988    -6.9251816      0             -6.2062477      3.636394     
   8300000   0.48493364    -6.9472749      0             -6.2213899      3.4524446    
   8400000   0.50205932    -6.8853068      0             -6.1337868      4.0186952    
   8500000   0.5103069     -6.8864813      0             -6.1226156      3.8228166    
   8600000   0.50423898    -6.8659061      0             -6.1111234      3.9760428    
   8700000   0.5158663     -6.8494115      0             -6.0772241      4.0790517    
   8800000   0.51915337    -6.8948722      0             -6.1177645      3.8673314    
   8900000   0.51090995    -6.9176712      0             -6.1529029      3.6277932    
   9000000   0.49433887    -6.9198554      0             -6.1798919      3.6628895    
   9100000   0.48097506    -6.9044295      0             -6.18447        3.8689743    
   9200000   0.5052335     -6.840637       0             -6.0843656      4.2724695    
   9300000   0.56647397    -6.8676742      0             -6.0197334      4.1700635    
   9400000   0.50700568    -6.8311978      0             -6.0722737      4.1239761    
   9500000   0.52956907    -6.8655331      0             -6.0728344      3.9973232    
   9600000   0.48924517    -6.9064249      0             -6.174086       3.7175459    
   9700000   0.49079606    -6.8613454      0             -6.126685       3.8976003    
   9800000   0.47821389    -6.9275898      0             -6.2117634      3.5092068    
   9900000   0.51513962    -6.8967819      0             -6.1256823      3.7755844    
  10000000   0.53994842    -6.8772466      0             -6.0690113      4.0044092    
Loop time of 1105.96 on 4 procs for 10000000 steps with 480 atoms

Performance: 2343675.519 tau/day, 9041.958 timesteps/s, 4.340 Matom-step/s
99.6% CPU use with 4 MPI tasks x 1 OpenMP threads

MPI task timing breakdown:
Section |  min time  |  avg time  |  max time  |%varavg| %total
---------------------------------------------------------------
Pair    | 716.24     | 734.95     | 753.65     |  49.1 | 66.45
Neigh   | 65.168     | 66.218     | 66.746     |   7.6 |  5.99
Comm    | 246.82     | 265.59     | 285.31     |  84.4 | 24.01
Output  | 0.0052675  | 0.0057949  | 0.0073652  |   1.2 |  0.00
Modify  | 28.488     | 28.935     | 29.634     |   8.3 |  2.62
Other   |            | 10.26      |            |       |  0.93

Nlocal:            120 ave         124 max         117 min
Histogram: 1 0 1 0 1 0 0 0 0 1
Nghost:        1380.75 ave        1390 max        1374 min
Histogram: 2 0 0 0 0 0 1 0 0 1
Neighs:         6949.5 ave        7191 max        6773 min
Histogram: 1 1 0 0 1 0 0 0 0 1

Total # of neighbors = 27798
Ave neighs/atom = 57.9125
Neighbor list builds = 274355
Dangerous builds = 828
Total wall time: 0:18:25
